25
25
1
3
3600
488 494 524 562 753 819 913 1116 1235 1456 1490 1628 1676 1704 1802 1910 2080 2103 2396 2466 2522 2543 2843 2861 2912 
23 11 26 16 28 38 15 12 36 21 12 5 24 10 32 6 9 23 21 13 8 7 13 40 37 
